NAME : problem_e65b51c9.vrp
COMMENT : Auto-generated VRP problem
TYPE : CVRP
DIMENSION : 3
EDGE_WEIGHT_TYPE : EUC_2D
CAPACITY : 100
NODE_COORD_SECTION
1 59 46
2 38 46
3 10 106
DEMAND_SECTION
1 0
2 15
3 20
DEPOT_SECTION
1
-1
EOF
